c --- [ banner ] -------------------------------------------------------------
c 
c CaDiCaL Radically Simplified CDCL SAT Solver
c Copyright (c) 2016-2021 A. Biere, M. Fleury, N. Froleyks
c 
c Version 1.5.2 a5f15211db36c3956764e18194dd5bd63bf3b5e6
c g++ (GCC) 9.3.0 -Wall -Wextra -O3 -DNDEBUG
c Fri Oct 21 01:27:37 EDT 2022 Linux gra-login3 3.10.0-1160.66.1.el7.x86_64 x86_64
c 
c --- [ limit ] --------------------------------------------------------------
c 
c setting conflict limit to 200000 conflicts (due to '200000')
c 
c --- [ parsing input ] ------------------------------------------------------
c 
c reading DIMACS file from '33.cubes3895.adj'
c opening file to read '33.cubes3895.adj'
c found 'p cnf 6160 1595478' header
c parsed 1595478 clauses in 19.16 seconds process time
c closing file '33.cubes3895.adj'
c after reading 1457566799 bytes 1390.0 MB
c 
c --- [ options ] ------------------------------------------------------------
c 
c all options are set to their default value
c 
c --- [ solving ] ------------------------------------------------------------
c 
c time measured in process time since initialization
c 
c  seconds    reductions  redundant   irredundant
c          MB     restarts       trail       variables
c            level   conflicts       glue         remaining
c 
c * 19.16 1386  0 0   0    0    0  0% 0 1595422 2318 38%
c { 20.46 1444  0 0   0    0    0  0% 0 1595422 2318 38%
c i 25.56 1517 329 0  10  240  186 24% 6 1595422 2317 38%
c i 26.73 1528 280 0  24  286  228 24% 9 1595422 2316 38%
c i 26.87 1528 274 0  25  292  233 24% 9 1595422 2315 38%
c i 26.96 1528 269 0  26  298  235 24% 9 1595422 2309 37%
c - 31.75 1493 267 1  27  300  236 24% 9 526258 2309 37%
c i 32.82 1387 222 1  41  368  293 25% 11 526258 2308 37%
c i 32.87 1387 220 1  43  373  297 25% 12 526258 2307 37%
c i 33.44 1387 194 1  53  424  341 25% 12 526258 2306 37%
c i 33.67 1387 186 1  59  445  359 25% 13 526258 2305 37%
c i 33.73 1387 184 1  61  449  362 25% 13 526258 2304 37%
c i 33.89 1388 181 1  63  457  369 25% 13 526258 2286 37%
c i 34.53 1388 172 1  72  489  397 26% 13 526258 2284 37%
c i 35.11 1390 168 1  78  510  417 26% 14 526258 2283 37%
c i 35.69 1390 164 1  85  535  441 26% 16 526258 2282 37%
c i 35.72 1390 162 1  87  542  447 26% 16 526258 2281 37%
c i 37.67 1393 151 1 107  623  521 26% 16 526258 2280 37%
c i 38.03 1393 148 1 111  643  536 26% 16 526258 2279 37%
c i 38.13 1393 146 1 114  652  541 26% 17 526258 2278 37%
c 
c  seconds     reductions  redundant   irredundant
c          MB      restarts       trail       variables
c             level   conflicts       glue         remaining
c 
c i 38.45 1393 144 1 116  674  556 26% 18 526258 2277 37%
c i 38.47 1393 143 1 117  679  560 26% 18 526258 2276 37%
c i 39.44 1395 141 1 125  713  590 26% 19 526258 2275 37%
c i 40.18 1398 139 1 132  742  616 26% 20 526258 2274 37%
c i 41.59 1401 127 1 148  840  699 26% 20 526258 2273 37%
c i 41.87 1402 115 1 148  948  785 27% 20 526258 2272 37%
c } 42.06 1402 110 1 148 1002  813 27% 19 526258 2272 37%
c [ 42.06 1402  0 1 148 1002  813  0% 0 526258 2272 37%
c O 42.12 1402  6 1 148 1003  814 19% 1 526258 2272 37%
c i 42.81 1402 18 1 148 1243 1007 34% 14 526258 2271 37%
c - 43.90 1644 18 2 148 1333 1007 34% 15 525972 2271 37%
c i 44.16 1644 17 2 148 1428 1076 33% 14 525972 2270 37%
c i 44.17 1644 17 2 148 1430 1077 33% 14 525972 2269 37%
c i 44.40 1644 20 2 148 1831 1340 32% 17 525972 2268 37%
c i 44.45 1644 20 2 148 1855 1362 32% 17 525972 2267 37%
c i 44.62 1644 20 2 149 2074 1526 32% 17 525972 2266 37%
c i 45.10 1644 26 2 149 2614 1866 31% 21 525972 2265 37%
c - 45.97 1642 25 3 149 2882 1605 31% 21 525954 2265 37%
c ] 46.61 1641 25 3 149 3002 1670 51% 21 525954 2265 37%
c { 46.61 1641 110 3 149 3002 1670 74% 19 525954 2265 37%
c 
c  seconds     reductions  redundant   irredundant
c          MB      restarts       trail       variables
c             level   conflicts       glue         remaining
c 
c F 46.75 1641 109 3 149 3004 1672 73% 19 525954 2265 37%
c i 47.02 1641 105 3 149 3054 1710 72% 19 525954 2264 37%
c i 47.04 1641 104 3 149 3056 1710 72% 19 525954 2263 37%
c i 48.07 1641 104 3 158 3120 1765 71% 20 525954 2262 37%
c i 48.59 1641 103 3 164 3142 1784 70% 20 525954 2261 37%
c i 49.01 1641 96 3 171 3246 1863 69% 20 525954 2260 37%
c i 49.11 1641 90 3 171 3348 1938 68% 20 525954 2259 37%
c i 50.85 1641 80 3 207 3702 2186 62% 21 525954 2258 37%
c i 50.97 1641 78 3 207 3749 2212 62% 21 525954 2257 37%
c i 52.54 1641 78 3 241 3929 2360 60% 23 525954 2251 37%
c i 54.22 1641 77 3 266 4026 2447 60% 23 525954 2241 36%
c - 58.82 1636 64 4 330 4948 2363 56% 22 525806 2241 36%
c 2 59.93 1636 63 4 333 5000 3437 56% 22 525794 2235 36%
c p 72.42 1636 63 4 333 5000 7191 56% 22 525794 2156 35%
c d 73.30 1637 63 4 333 5000 6975 56% 22 489583 2153 35%
c # 75.98 1637 53 4 358 6005 7771 54% 21 489583 2153 35%
c } 78.28 1637 47 4 376 7004 8512 53% 20 489583 2153 35%
c [ 78.28 1637 25 4 376 7004 8512 51% 21 489583 2153 35%
c - 79.59 1604 25 5 377 7529 3536 49% 20 489583 2153 35%
c I 82.22 1604 30 5 378 10006 5275 49% 25 489583 2153 35%
c 
c  seconds    reductions   redundant   irredundant
c          MB     restarts        trail       variables
c            level    conflicts       glue         remaining
c 
c - 84.28 1604 33 6 379 10573 3944 49% 26 489583 2153 35%
c - 90.05 1604 44 7 381 14122 4696 49% 35 489583 2153 35%
c 2 91.58 1604 45 7 381 15002 6542 49% 36 489583 2153 35%
c p 95.49 1604 45 7 381 15002 9976 49% 36 489583 2153 35%
c ] 95.72 1604 45 7 381 15005 9978 49% 36 489583 2153 35%
c { 95.72 1604 47 7 381 15005 9978 53% 20 489583 2153 35%
c B 95.97 1604 47 7 381 15007 9980 53% 20 489583 2153 35%
c - 103.25 1604 39 8 511 18179 5584 51% 20 489583 2153 35%
c s 103.93 1604 37 8 512 18860 5691 51% 19 487359 2153 35%
c v 114.26 1604 37 8 512 18860 5691 51% 19 487314 2153 35%
c t 114.56 1604 37 8 512 18860 5675 51% 19 487304 2153 35%
c e 116.74 1605 37 8 512 18860 5168 51% 19 485331 960 16%
c s 116.91 1605 37 8 512 18860 5163 51% 19 480224 960 16%
c W 121.43 1604 33 8 516 21010 6458 64% 18 480224 960 16%
c - 128.28 1604 34 9 714 22741 6406 64% 19 480224 960 16%
c - 158.59 1604 36 10 1371 27790 7196 64% 21 480224 960 16%
c F 159.16 1604 36 10 1371 28011 7372 64% 21 480224 960 16%
c p 166.70 1546 35 10 1393 30005 11409 64% 20 480224 960 16%
c } 168.31 1546 34 10 1395 31005 12136 65% 20 480224 960 16%
c [ 168.31 1546 45 10 1395 31005 12136 116% 36 480224 960 16%
c 
c  seconds     reductions     redundant    irredundant
c           MB      restarts         trail        variables
c             level      conflicts        glue        remaining
c 
c - 170.64 1545 40 11 1395 33339 7717 105% 32 480224 960 16%
c B 173.09 1545 36 11 1398 36014 9294 97% 29 480224 960 16%
c - 176.28 1347 37 12 1400 39394 8161 90% 30 480224 960 16%
c W 181.87 1347 36 12 1402 45015 12101 83% 30 480224 960 16%
c - 182.74 1548 35 13 1402 45951 8907 83% 29 480224 960 16%
c p 188.69 1548 34 13 1403 50007 14381 80% 28 480224 960 16%
c - 191.26 1347 33 14 1403 53014 9081 78% 27 480224 960 16%
c O 192.42 1347 33 14 1404 55016 10559 78% 28 480224 960 16%
c - 195.87 1547 32 15 1408 60580 9543 76% 27 480224 960 16%
c ] 197.15 1547 32 15 1410 63006 11063 75% 27 480224 960 16%
c { 197.15 1547 34 15 1410 63006 11063 65% 20 480224 960 16%
c B 201.32 1547 32 15 1513 66020 12834 64% 20 480224 960 16%
c - 203.94 1347 31 16 1618 68650 9853 65% 20 480224 960 16%
c p 214.18 1347 28 16 1647 75007 16684 65% 18 480224 960 16%
c - 218.78 1547 27 17 1660 77225 10649 65% 18 480224 960 16%
c W 220.37 1547 27 17 1671 78023 11179 65% 18 480224 960 16%
c - 241.15 1347 26 18 2096 86305 12044 65% 17 480224 960 16%
c # 248.49 1347 25 18 2251 91025 14841 66% 17 480224 960 16%
c - 257.53 1547 25 19 2477 95890 12522 66% 17 480224 960 16%
c p 270.86 1547 23 19 2550 105013 21023 65% 16 480224 960 16%
c 
c  seconds     reductions       redundant   irredundant
c           MB      restarts           trail       variables
c             level      conflicts         glue        remaining
c 
c s 271.18 1547 23 19 2550 105013 21016 65% 16 477548 960 16%
c v 288.02 1547 23 19 2550 105013 21016 65% 16 477501 960 16%
c w 288.70 1547 23 19 2550 105013 21007 65% 16 477501 960 16%
c t 288.71 1547 23 19 2550 105013 21005 65% 16 477501 960 16%
c s 291.10 1547 23 19 2550 105013 21005 65% 16 473455 960 16%
c B 293.68 1547 23 19 2550 105026 21009 65% 16 473455 960 16%
c - 296.79 1347 23 20 2694 105980 13036 65% 17 473455 960 16%
c - 305.52 1545 22 21 2913 116535 12860 66% 16 473455 960 16%
c W 312.07 1545 22 21 3027 120027 15032 66% 16 473455 960 16%
c } 325.98 1545 22 21 3487 127006 19540 66% 16 473455 960 16%
c [ 325.98 1545 32 21 3487 127006 19540 75% 27 473455 960 16%
c - 326.73 1347 32 22 3487 127592 14564 75% 27 473455 960 16%
c B 331.62 1347 31 22 3491 136028 19643 74% 26 473455 960 16%
c - 334.14 1547 32 23 3493 139152 15580 74% 27 473455 960 16%
c p 337.88 1547 32 23 3494 140014 19646 74% 27 473455 960 16%
c ] 339.85 1547 32 23 3495 144655 22750 73% 28 473455 960 16%
c 1 339.85 1547 32 23 3495 144655 22750 73% 28 473455 960 16%
c 
c --- [ writing output ] -----------------------------------------------------
c 
c writing simplified CNF to DIMACS file 'simp/33.cubes3895.adj.simp1'
c * 339.85 1547 32 23 3495 144655 22750 73% 28 473455 960 16%
c opening file to write 'simp/33.cubes3895.adj.simp1'
c writing 'p cnf 6160 473455' header
c closing file 'simp/33.cubes3895.adj.simp1'
c after writing 229546095 bytes 218.9 MB
c wrote 473455 clauses in 1.66 seconds process time
c 
c --- [ writing extension ] --------------------------------------------------
c 
c writing extension stack to 'simp/33.cubes3895.adj.ext1'
c opening file to write 'simp/33.cubes3895.adj.ext1'
c closing file 'simp/33.cubes3895.adj.ext1'
c after writing 85310 bytes 0.1 MB
c wrote 3771 witnesses in 0.00 seconds process time
c 
c --- [ result ] -------------------------------------------------------------
c 
s SATISFIABLE
c 
c --- [ run-time profiling ] -------------------------------------------------
c 
c process time taken by individual solving procedures
c (percentage relative to process time for solving)
c 
c       244.27   76.17% search
c       186.61   58.19% unstable
c        76.41   23.83% simplify
c        51.65   16.11% stable
c        36.43   11.36% probe
c        28.03    8.74% vivify
c        19.16    5.98% parse
c         8.25    2.57% elim
c         4.70    1.47% walk
c         1.30    0.41% lucky
c         0.88    0.28% subsume
c         0.51    0.16% ternary
c   =================================
c       320.68   93.90% solve
c 
c last line shows process time for solving
c (percentage relative to total process time)
c 
c --- [ statistics ] ---------------------------------------------------------
c 
c chronological:             26745        18.49 %  of conflicts
c conflicts:                144655       451.08    per second
c decisions:                300212       936.16    per second
c eliminated:                 1193        19.37 %  of all variables
c fixed:                       854        13.86 %  of all variables
c learned:                  141163        97.59 %  per conflict
c learned_lits:           25022208       100.00 %  learned literals
c minimized:                     0         0.00 %  learned literals
c shrunken:               16988627        67.89 %  learned literals
c minishrunken:            1520007         6.07 %  learned literals
c propagations:           11422141         0.04 M  per second
c reduced:                   72941        50.42 %  per conflict
c rephased:                     16      9040.94    interval
c restarts:                   3495        41.39    interval
c stabilizing:                   4        41.24 %  of conflicts
c substituted:                   9         0.15 %  of all variables
c subsumed:                  62564         1.69 %  of all clauses
c strengthened:              11605         0.31 %  of all clauses
c ternary:                    5637         0.75 %  of resolved
c vivified:                    119         0.00 %  of all clauses
c walked:                        4     36163.75    interval
c weakened:                   2917         3.24    average size
c 
c seconds are measured in process time for solving
c 
c --- [ resources ] ----------------------------------------------------------
c 
c total process time since initialization:       341.51    seconds
c total real time since initialization:          343.26    seconds
c maximum resident set size of process:         1882.32    MB
c 
c --- [ shutting down ] ------------------------------------------------------
c 
c exit 10
WARNING! DIMACS header mismatch: wrong number of variables.
============================[ Problem Statistics ]=============================
|                                                                             |
|  Number of variables:          4041                                         |
|  Number of clauses:          473455                                         |
|  Parse time:                   3.02 s                                       |
|  Simplification time:          0.10 s                                       |
|                                                                             |
============================[ Search Statistics ]====================================================
| Conflicts |          ORIGINAL         |          LEARNT          | Num Sols |      SUBGRAPHS      |
|           |    Vars  Clauses Literals |    Limit  Clauses Lit/Cl |          | Canonical Noncanon. |
=====================================================================================================
|       100 |    3950   473455 49484107 |     2000      100    130 |        0 |        13         0 |
|       320 |    3950   473525 49485037 |     2000      320     87 |        0 |        42        70 |
|       547 |    3950   473527 49485064 |     2000      547     99 |        0 |        45        72 |
|       891 |    3950   473534 49485326 |     2000      891     93 |        0 |        60        79 |
|      1402 |    3950   473539 49485560 |     2000     1402     95 |        0 |        80        84 |
|      2490 |    3950   473868 49490225 |     3600     1490     39 |        0 |       219       413 |
|      3686 |    3950   473925 49491305 |     3600     2686     57 |        0 |       246       470 |
|      5444 |    3950   473975 49492501 |     5001     2645     40 |        0 |       272       520 |
|      8135 |    3950   474104 49495511 |     6305     2840     29 |        0 |       332       649 |
|     12621 |    3950   474746 49505015 |     7553     4174     29 |        0 |       531      1291 |
|     19197 |    3950   475556 49514343 |     8784     6981     48 |        0 |       700      2101 |
|     29709 |    3950   477419 49539356 |    11222     8131     42 |        0 |      1389      3964 |
|     43418 |    3950   478154 49549228 |    13619    10037     46 |        0 |      1603      4699 |
|     64151 |    3950   479426 49566938 |    17215     8566     18 |        0 |      1976      5971 |
|     94552 |    3950   480635 49584864 |    20830    11382     26 |        0 |      2332      7180 |
|    141639 |    3950   483933 49631809 |    25613    13252     21 |        0 |      3231     10478 |
|    209131 |    3950   485741 49659129 |    30412    25943     50 |        0 |      3677     12286 |
|    309778 |    3950   487862 49691144 |    37623    26401     43 |        0 |      4390     14407 |
|    460386 |    3950   490681 49725038 |    46016    32802     42 |        0 |      5316     17226 |
|    683787 |    3920   492399 49759298 |    55633    55420     56 |        0 |      5676     18944 |
=====================================================================================================
Number of solutions   : 0
Canonical subgraphs   : 6143           (3 /sec)
          order  3    : 1              (200000 /sec)
          order  4    : 1              (500000 /sec)
          order  5    : 1              (250000 /sec)
          order  6    : 1              (55556 /sec)
          order  7    : 1              (8929 /sec)
          order  8    : 1              (999 /sec)
          order  9    : 2              (151 /sec)
          order 10    : 7              (37 /sec)
          order 11    : 34             (12 /sec)
          order 12    : 301            (5 /sec)
          order 13    : 532            (2 /sec)
          order 14    : 3535           (3 /sec)
          order 15    : 867            (2 /sec)
          order 16    : 679            (3 /sec)
          order 17    : 118            (4 /sec)
          order 18    : 49             (5 /sec)
          order 19    : 9              (5 /sec)
          order 20    : 2              (4 /sec)
          order 21    : 2              (4 /sec)
          order 22    : 0              (-nan /sec)
Noncanonical subgraphs: 20897          (117 /sec)
          order  3    : 0              (-nan /sec)
          order  4    : 0              (-nan /sec)
          order  5    : 0              (-nan /sec)
          order  6    : 0              (-nan /sec)
          order  7    : 0              (-nan /sec)
          order  8    : 0              (-nan /sec)
          order  9    : 0              (-nan /sec)
          order 10    : 0              (-nan /sec)
          order 11    : 0              (-nan /sec)
          order 12    : 0              (-nan /sec)
          order 13    : 2582           (7868 /sec)
          order 14    : 6326           (2224 /sec)
          order 15    : 7579           (318 /sec)
          order 16    : 1406           (128 /sec)
          order 17    : 2993           (21 /sec)
          order 18    : 9              (21 /sec)
          order 19    : 0              (-nan /sec)
          order 20    : 0              (-nan /sec)
          order 21    : 0              (-nan /sec)
Canonicity checking   : 2440.02 s
Noncanonicity checking: 178.485 s
Total canonicity time : 2618.51 s
database reductions   : 45
restarts              : 1533
conflicts             : 707331         (235 /sec)
decisions             : 983519         (0.00 % random) (326 /sec)
propagations          : 39277237       (13023 /sec)
conflict literals     : 67537075       (53.99 % deleted)
actual reward         : 0.234954
Memory used           : 601.00 MB
CPU time              : 3015.9 s

UNSATISFIABLE
